num_features = 31;
num_usage_limits = 3;
num_plans = 6;
num_addons = 0;

features = ["socialChannels","schedulePosts","instagram","facebook","twitter","linkedin","pinterest","pinterestBoards","tailoredPostComposer","calendarView","customVideoThumpnails","instagramFirstComment","instagramHashtagManager","instagramStories","instagramShopGrid","draftPosts","postsReport","inviteAdditionalUsers","assignAccessAndPermissions","approvalWorkflow","browserExtension","mobileApps","thirdPartyIntegrations","twoFactorAuthentication","selfServiceKnowledgeBase","socialMediaSupport","emailSupport","bufferCommunity","engagementGridView","commentSentiment","hotkeys"];
usage_limits = ["socialChannelsLimit","postsPerScheduledQueuePerSocialAccountLimit","usersLimit"];
plans = ["PRO","PREMIUM","BUSINESS","MEDIUM_BUSINESS","LARGE_BUSINESS","ENTERPRISE"];
addons = [];

plans_prices = [15,65,99,199,399,3990];
addons_prices = [];

linked_features = array2d(USAGE_LIMITS, FEATURES, [
    % socialChannelsLimit
    1,0,0,0,0,0,0,0,0,0,0,0,0,0,0,0,0,0,0,0,0,0,0,0,0,0,0,0,0,0,0,
    % postsPerScheduledQueuePerSocialAccountLimit
    0,1,0,0,0,0,0,0,0,0,0,0,0,0,0,0,0,0,0,0,0,0,0,0,0,0,0,0,0,0,0,
    % usersLimit
    0,0,0,0,0,0,0,0,0,0,0,0,0,0,0,0,0,0,0,0,0,0,0,0,0,0,0,0,0,0,0
]);

plans_features = array2d(PLANS, FEATURES, [
    % PRO
    1,1,1,1,1,1,1,0,1,1,1,1,0,0,0,1,1,1,1,1,1,1,1,1,1,1,1,1,1,1,1,
    % PREMIUM
    1,1,1,1,1,1,1,0,1,1,1,1,1,1,1,1,1,1,1,1,1,1,1,1,1,1,1,1,1,1,1,
    % BUSINESS
    1,1,1,1,1,1,1,0,1,1,1,1,1,1,1,1,1,1,1,1,1,1,1,1,1,1,1,1,1,1,1,
    % MEDIUM_BUSINESS
    1,1,1,1,1,1,1,0,1,1,1,1,0,0,0,1,1,1,1,1,1,1,1,1,1,1,1,1,1,1,1,
    % LARGE_BUSINESS
    1,1,1,1,1,1,1,0,1,1,1,1,0,0,0,1,1,1,1,1,1,1,1,1,1,1,1,1,1,1,1,
    % ENTERPRISE
    1,1,1,1,1,1,1,0,1,1,1,1,0,0,0,1,1,1,1,1,1,1,1,1,1,1,1,1,1,1,1
]);
plans_usage_limits = array2d(PLANS, USAGE_LIMITS, [
    % PRO
    8,10000000,1,
    % PREMIUM
    8,2000,2,
    % BUSINESS
    25,2000,6,
    % MEDIUM_BUSINESS
    8,10000000,1,
    % LARGE_BUSINESS
    8,10000000,1,
    % ENTERPRISE
    8,10000000,1
]);

addons_features = array2d(ADDONS, FEATURES, [
]);
addons_usage_limits = array2d(ADDONS, USAGE_LIMITS, [
]);
addons_usage_limits_extensions = array2d(ADDONS, USAGE_LIMITS, [
]);
addons_available_for = array2d(ADDONS, PLANS, [
]);
addons_depends_on = array2d(ADDONS, ADDONS, [
]);
